50
10702

862 681
855 740
960 214
615 625
44 713
830 152
631 207
8 29
242 238
143 168
622 305
616 962
33 277
865 662
201 468
538 621
910 296
30 304
608 28
16 748
39 476
266 966
90 123
581 526
75 174
75 938
68 497
241 771
560 711
657 606
587 609
297 675
355 887
666 118
886 449
716 164
970 93
684 238
119 684
793 506
306 952
545 862
951 12
614 622
676 417
943 911
131 299
323 312
297 873
406 885
